(set-info :source |printed by MathSAT|)
(declare-fun |.x{215}| () Int)
(declare-fun |.y{21}| () Int)
(declare-fun |.y{14}| () Int)
(declare-fun |.y{22}| () Int)
(declare-fun |.x{216}| () (Array Int Int))
(declare-fun |.y{23}| () (Array Int Int))
(declare-fun |.x{219}| () Int)
(declare-fun |.y{24}| () Int)
(declare-fun |.x{220}| () (Array Int Int))
(declare-fun |.y{25}| () (Array Int Int))
(declare-fun |.x{218}| () Int)
(declare-fun |.y{26}| () Int)
(declare-fun |.x{212}| () Int)
(declare-fun |.y{27}| () Int)
(declare-fun |.y{15}| () Int)
(declare-fun |.y{28}| () Int)
(declare-fun |.y{16}| () (Array Int Int))
(declare-fun |.y{29}| () (Array Int Int))
(declare-fun |.y{17}| () (Array Int Int))
(declare-fun |.y{30}| () (Array Int Int))
(declare-fun |.y{18}| () Int)
(declare-fun |.y{31}| () Int)
(declare-fun |.y{19}| () Int)
(declare-fun |.y{32}| () Int)
(declare-fun |.y{20}| () (Array Int Int))
(declare-fun |.y{33}| () (Array Int Int))
(declare-fun |.loc{4}| () Bool)
(declare-fun |.loc{7}| () Bool)
(declare-fun |.loc{5}| () Bool)
(declare-fun |.loc{8}| () Bool)
(declare-fun |.loc{6}| () Bool)
(declare-fun |.loc{9}| () Bool)
(declare-fun |.x{37}| () Int)
(declare-fun |.x{221}| () Int)
(declare-fun |.x{217}| () Int)
(define-fun .def_34 () Bool (! |.loc{4}| :next |.loc{7}|))
(define-fun .def_108 () Bool (not .def_34))
(define-fun .def_36 () Bool (! |.loc{5}| :next |.loc{8}|))
(define-fun .def_83 () Bool (not .def_36))
(define-fun .def_302 () Bool (and .def_83 .def_108))
(define-fun .def_38 () Bool (! |.loc{6}| :next |.loc{9}|))
(define-fun .def_53 () Bool (not .def_38))
(define-fun .def_303 () Bool (! (and .def_53 .def_302) :init true))
(define-fun .def_12 () (Array Int Int) (! |.x{216}| :next |.y{23}|))
(define-fun .def_252 () Int (select .def_12 |.x{217}|))
(define-fun .def_16 () (Array Int Int) (! |.x{220}| :next |.y{25}|))
(define-fun .def_251 () Int (select .def_16 |.x{221}|))
(define-fun .def_253 () Bool (= .def_251 .def_252))
(define-fun .def_282 () Bool (not .def_253))
(define-fun .def_61 () Int (* (- 1) |.x{217}|))
(define-fun .def_18 () Int (! |.x{218}| :next |.y{26}|))
(define-fun .def_160 () Int (+ .def_18 .def_61))
(define-fun .def_8 () Int (! |.x{215}| :next |.y{21}|))
(define-fun .def_248 () Int (+ .def_8 .def_160))
(define-fun .def_249 () Bool (= .def_248 0))
(define-fun .def_14 () Int (! |.x{219}| :next |.y{24}|))
(define-fun .def_91 () Bool (<= .def_14 0))
(define-fun .def_89 () Bool (<= |.x{221}| 0))
(define-fun .def_90 () Bool (not .def_89))
(define-fun .def_92 () Bool (or .def_90 .def_91))
(define-fun .def_78 () Bool (<= .def_8 0))
(define-fun .def_81 () Bool (not .def_78))
(define-fun .def_245 () Bool (and .def_81 .def_92))
(define-fun .def_96 () Bool (not .def_91))
(define-fun .def_246 () Bool (and .def_96 .def_245))
(define-fun .def_281 () Bool (and .def_246 .def_249))
(define-fun .def_283 () Bool (and .def_281 .def_282))
(define-fun .def_284 () Bool (and |.loc{7}| .def_283))
(define-fun .def_68 () Int (* (- 1) |.x{221}|))
(define-fun .def_171 () Int (+ .def_18 .def_68))
(define-fun .def_259 () Int (+ .def_14 .def_171))
(define-fun .def_260 () Bool (= .def_259 0))
(define-fun .def_285 () Bool (and .def_260 .def_284))
(define-fun .def_286 () Bool (and .def_260 .def_285))
(define-fun .def_20 () Int (! |.x{212}| :next |.y{27}|))
(define-fun .def_263 () Bool (<= .def_20 .def_18))
(define-fun .def_264 () Bool (not .def_263))
(define-fun .def_287 () Bool (and .def_264 .def_286))
(define-fun .def_288 () Bool (and .def_38 .def_287))
(define-fun .def_289 () Bool (and .def_108 .def_288))
(define-fun .def_290 () Bool (and .def_83 .def_289))
(define-fun .def_76 () Bool (<= |.x{217}| 0))
(define-fun .def_77 () Bool (not .def_76))
(define-fun .def_79 () Bool (or .def_77 .def_78))
(define-fun .def_291 () Bool (and .def_79 .def_290))
(define-fun .def_24 () (Array Int Int) (! |.y{16}| :next |.y{29}|))
(define-fun .def_227 () Bool (= |.y{25}| .def_24))
(define-fun .def_28 () Int (! |.y{18}| :next |.y{31}|))
(define-fun .def_226 () Bool (= |.y{27}| .def_28))
(define-fun .def_228 () Bool (and .def_226 .def_227))
(define-fun .def_135 () Bool (not |.loc{7}|))
(define-fun .def_272 () Bool (and .def_135 .def_228))
(define-fun .def_273 () Bool (and .def_53 .def_272))
(define-fun .def_198 () Bool (= |.y{26}| 0))
(define-fun .def_274 () Bool (and .def_198 .def_273))
(define-fun .def_210 () Bool (<= .def_28 .def_18))
(define-fun .def_275 () Bool (and .def_210 .def_274))
(define-fun .def_276 () Bool (and .def_34 .def_275))
(define-fun .def_277 () Bool (and .def_36 .def_276))
(define-fun .def_58 () Bool (= .def_8 |.y{21}|))
(define-fun .def_278 () Bool (and .def_58 .def_277))
(define-fun .def_145 () Bool (= .def_12 |.y{23}|))
(define-fun .def_279 () Bool (and .def_145 .def_278))
(define-fun .def_243 () Bool (= |.y{24}| .def_20))
(define-fun .def_280 () Bool (and .def_243 .def_279))
(define-fun .def_292 () Bool (or .def_280 .def_291))
(define-fun .def_166 () Int (* (- 1) |.y{26}|))
(define-fun .def_167 () Int (+ .def_18 .def_166))
(define-fun .def_168 () Bool (= .def_167 (- 1)))
(define-fun .def_247 () Bool (and .def_168 .def_246))
(define-fun .def_250 () Bool (and .def_247 .def_249))
(define-fun .def_254 () Bool (and .def_250 .def_253))
(define-fun .def_103 () Bool (= .def_14 |.y{24}|))
(define-fun .def_255 () Bool (and .def_103 .def_254))
(define-fun .def_256 () Bool (and .def_135 .def_255))
(define-fun .def_177 () Bool (= .def_16 |.y{25}|))
(define-fun .def_257 () Bool (and .def_177 .def_256))
(define-fun .def_261 () Bool (and .def_257 .def_260))
(define-fun .def_105 () Bool (= .def_20 |.y{27}|))
(define-fun .def_262 () Bool (and .def_105 .def_261))
(define-fun .def_265 () Bool (and .def_262 .def_264))
(define-fun .def_266 () Bool (and .def_58 .def_265))
(define-fun .def_267 () Bool (and .def_38 .def_266))
(define-fun .def_268 () Bool (and .def_108 .def_267))
(define-fun .def_269 () Bool (and .def_145 .def_268))
(define-fun .def_270 () Bool (and .def_83 .def_269))
(define-fun .def_271 () Bool (and .def_79 .def_270))
(define-fun .def_293 () Bool (or .def_271 .def_292))
(define-fun .def_294 () Bool (and |.loc{9}| .def_293))
(define-fun .def_101 () Bool (not |.loc{8}|))
(define-fun .def_295 () Bool (and .def_101 .def_294))
(define-fun .def_30 () Int (! |.y{19}| :next |.y{32}|))
(define-fun .def_237 () Bool (= |.y{31}| .def_30))
(define-fun .def_32 () (Array Int Int) (! |.y{20}| :next |.y{33}|))
(define-fun .def_230 () Bool (= |.y{29}| .def_32))
(define-fun .def_66 () Bool (not |.loc{9}|))
(define-fun .def_229 () Bool (and .def_66 .def_228))
(define-fun .def_231 () Bool (and .def_229 .def_230))
(define-fun .def_130 () Bool (<= .def_30 .def_18))
(define-fun .def_232 () Bool (and .def_130 .def_231))
(define-fun .def_233 () Bool (and |.loc{7}| .def_232))
(define-fun .def_234 () Bool (and |.loc{8}| .def_233))
(define-fun .def_235 () Bool (and .def_53 .def_234))
(define-fun .def_236 () Bool (and .def_198 .def_235))
(define-fun .def_238 () Bool (and .def_236 .def_237))
(define-fun .def_239 () Bool (and .def_36 .def_238))
(define-fun .def_240 () Bool (and .def_58 .def_239))
(define-fun .def_241 () Bool (and .def_108 .def_240))
(define-fun .def_242 () Bool (and .def_145 .def_241))
(define-fun .def_244 () Bool (and .def_242 .def_243))
(define-fun .def_296 () Bool (or .def_244 .def_295))
(define-fun .def_211 () Bool (not .def_210))
(define-fun .def_132 () Bool (<= .def_20 0))
(define-fun .def_133 () Bool (not .def_132))
(define-fun .def_204 () Bool (and .def_66 .def_133))
(define-fun .def_137 () Bool (= .def_28 |.y{31}|))
(define-fun .def_205 () Bool (and .def_137 .def_204))
(define-fun .def_206 () Bool (and .def_168 .def_205))
(define-fun .def_207 () Bool (and .def_96 .def_206))
(define-fun .def_152 () Int (select .def_16 |.x{217}|))
(define-fun .def_153 () (Array Int Int) (store .def_24 |.x{221}| .def_152))
(define-fun .def_154 () Bool (= |.y{29}| .def_153))
(define-fun .def_208 () Bool (and .def_154 .def_207))
(define-fun .def_209 () Bool (and .def_103 .def_208))
(define-fun .def_212 () Bool (and .def_209 .def_211))
(define-fun .def_213 () Bool (and |.loc{7}| .def_212))
(define-fun .def_214 () Bool (and |.loc{8}| .def_213))
(define-fun .def_215 () Bool (and .def_177 .def_214))
(define-fun .def_161 () Int (+ .def_14 .def_160))
(define-fun .def_162 () Bool (= .def_161 0))
(define-fun .def_216 () Bool (and .def_162 .def_215))
(define-fun .def_217 () Bool (and .def_105 .def_216))
(define-fun .def_164 () Bool (or .def_77 .def_91))
(define-fun .def_218 () Bool (and .def_164 .def_217))
(define-fun .def_219 () Bool (and .def_53 .def_218))
(define-fun .def_220 () Bool (and .def_34 .def_219))
(define-fun .def_221 () Bool (and .def_36 .def_220))
(define-fun .def_222 () Bool (and .def_58 .def_221))
(define-fun .def_173 () Int (+ .def_20 .def_68))
(define-fun .def_174 () Int (+ .def_18 .def_173))
(define-fun .def_175 () Bool (= .def_174 0))
(define-fun .def_223 () Bool (and .def_175 .def_222))
(define-fun .def_224 () Bool (and .def_145 .def_223))
(define-fun .def_179 () Bool (or .def_90 .def_132))
(define-fun .def_225 () Bool (and .def_179 .def_224))
(define-fun .def_297 () Bool (or .def_225 .def_296))
(define-fun .def_196 () Bool (= .def_24 |.y{33}|))
(define-fun .def_22 () Int (! |.y{15}| :next |.y{28}|))
(define-fun .def_194 () Bool (= .def_22 |.y{32}|))
(define-fun .def_191 () Bool (= .def_20 |.y{31}|))
(define-fun .def_186 () Bool (= .def_18 |.y{27}|))
(define-fun .def_26 () (Array Int Int) (! |.y{17}| :next |.y{30}|))
(define-fun .def_182 () Bool (= |.y{29}| .def_26))
(define-fun .def_183 () Bool (and .def_66 .def_182))
(define-fun .def_10 () Int (! |.y{14}| :next |.y{22}|))
(define-fun .def_55 () Bool (<= .def_22 .def_10))
(define-fun .def_184 () Bool (and .def_55 .def_183))
(define-fun .def_185 () Bool (and .def_103 .def_184))
(define-fun .def_187 () Bool (and .def_185 .def_186))
(define-fun .def_188 () Bool (and |.loc{8}| .def_187))
(define-fun .def_189 () Bool (and .def_135 .def_188))
(define-fun .def_190 () Bool (and .def_177 .def_189))
(define-fun .def_192 () Bool (and .def_190 .def_191))
(define-fun .def_193 () Bool (and .def_53 .def_192))
(define-fun .def_195 () Bool (and .def_193 .def_194))
(define-fun .def_197 () Bool (and .def_195 .def_196))
(define-fun .def_199 () Bool (and .def_197 .def_198))
(define-fun .def_200 () Bool (and .def_34 .def_199))
(define-fun .def_201 () Bool (and .def_58 .def_200))
(define-fun .def_202 () Bool (and .def_145 .def_201))
(define-fun .def_203 () Bool (and .def_83 .def_202))
(define-fun .def_298 () Bool (or .def_203 .def_297))
(define-fun .def_143 () Bool (= .def_32 |.y{33}|))
(define-fun .def_140 () Bool (= .def_30 |.y{32}|))
(define-fun .def_131 () Bool (not .def_130))
(define-fun .def_134 () Bool (and .def_131 .def_133))
(define-fun .def_136 () Bool (and .def_134 .def_135))
(define-fun .def_138 () Bool (and .def_136 .def_137))
(define-fun .def_139 () Bool (and .def_53 .def_138))
(define-fun .def_141 () Bool (and .def_139 .def_140))
(define-fun .def_142 () Bool (and .def_58 .def_141))
(define-fun .def_144 () Bool (and .def_142 .def_143))
(define-fun .def_146 () Bool (and .def_144 .def_145))
(define-fun .def_147 () Bool (and .def_66 .def_146))
(define-fun .def_148 () Bool (and .def_36 .def_147))
(define-fun .def_149 () Bool (and .def_108 .def_148))
(define-fun .def_150 () Bool (and .def_96 .def_149))
(define-fun .def_151 () Bool (and |.loc{8}| .def_150))
(define-fun .def_155 () Bool (and .def_151 .def_154))
(define-fun .def_163 () Bool (and .def_155 .def_162))
(define-fun .def_165 () Bool (and .def_163 .def_164))
(define-fun .def_169 () Bool (and .def_165 .def_168))
(define-fun .def_170 () Bool (and .def_103 .def_169))
(define-fun .def_176 () Bool (and .def_170 .def_175))
(define-fun .def_178 () Bool (and .def_176 .def_177))
(define-fun .def_180 () Bool (and .def_178 .def_179))
(define-fun .def_181 () Bool (and .def_105 .def_180))
(define-fun .def_299 () Bool (or .def_181 .def_298))
(define-fun .def_127 () Bool (<= |.y{27}| 0))
(define-fun .def_128 () Bool (not .def_127))
(define-fun .def_124 () Bool (<= |.y{26}| 0))
(define-fun .def_125 () Bool (not .def_124))
(define-fun .def_121 () Bool (<= |.y{24}| 0))
(define-fun .def_122 () Bool (not .def_121))
(define-fun .def_117 () Bool (<= |.y{28}| 0))
(define-fun .def_118 () Bool (not .def_117))
(define-fun .def_113 () Bool (<= |.y{21}| 0))
(define-fun .def_114 () Bool (not .def_113))
(define-fun .def_111 () Bool (= |.y{22}| 0))
(define-fun .def_107 () Bool (and .def_53 .def_66))
(define-fun .def_109 () Bool (and .def_107 .def_108))
(define-fun .def_110 () Bool (and .def_83 .def_109))
(define-fun .def_112 () Bool (and .def_110 .def_111))
(define-fun .def_115 () Bool (and .def_112 .def_114))
(define-fun .def_116 () Bool (and |.loc{7}| .def_115))
(define-fun .def_119 () Bool (and .def_116 .def_118))
(define-fun .def_120 () Bool (and .def_101 .def_119))
(define-fun .def_123 () Bool (and .def_120 .def_122))
(define-fun .def_126 () Bool (and .def_123 .def_125))
(define-fun .def_129 () Bool (and .def_126 .def_128))
(define-fun .def_300 () Bool (or .def_129 .def_299))
(define-fun .def_98 () Bool (= .def_26 |.y{30}|))
(define-fun .def_94 () Bool (= .def_24 |.y{29}|))
(define-fun .def_87 () Bool (= .def_22 |.y{28}|))
(define-fun .def_85 () Bool (= .def_18 |.y{26}|))
(define-fun .def_71 () Int (+ .def_14 .def_68))
(define-fun .def_72 () Int (+ .def_10 .def_71))
(define-fun .def_73 () Bool (= .def_72 0))
(define-fun .def_62 () Int (+ .def_10 .def_61))
(define-fun .def_63 () Int (+ .def_8 .def_62))
(define-fun .def_64 () Bool (= .def_63 0))
(define-fun .def_56 () Bool (not .def_55))
(define-fun .def_50 () (Array Int Int) (store .def_12 |.x{217}| |.x{37}|))
(define-fun .def_51 () Bool (= |.y{23}| .def_50))
(define-fun .def_45 () Int (* (- 1) |.y{22}|))
(define-fun .def_46 () Int (+ .def_10 .def_45))
(define-fun .def_47 () Bool (= .def_46 (- 1)))
(define-fun .def_42 () (Array Int Int) (store .def_16 |.x{221}| |.x{37}|))
(define-fun .def_43 () Bool (= |.y{25}| .def_42))
(define-fun .def_48 () Bool (and .def_43 .def_47))
(define-fun .def_52 () Bool (and .def_48 .def_51))
(define-fun .def_54 () Bool (and .def_52 .def_53))
(define-fun .def_57 () Bool (and .def_54 .def_56))
(define-fun .def_59 () Bool (and .def_57 .def_58))
(define-fun .def_65 () Bool (and .def_59 .def_64))
(define-fun .def_67 () Bool (and .def_65 .def_66))
(define-fun .def_74 () Bool (and .def_67 .def_73))
(define-fun .def_75 () Bool (and .def_34 .def_74))
(define-fun .def_80 () Bool (and .def_75 .def_79))
(define-fun .def_82 () Bool (and .def_80 .def_81))
(define-fun .def_84 () Bool (and .def_82 .def_83))
(define-fun .def_86 () Bool (and .def_84 .def_85))
(define-fun .def_88 () Bool (and .def_86 .def_87))
(define-fun .def_93 () Bool (and .def_88 .def_92))
(define-fun .def_95 () Bool (and .def_93 .def_94))
(define-fun .def_97 () Bool (and .def_95 .def_96))
(define-fun .def_99 () Bool (and .def_97 .def_98))
(define-fun .def_100 () Bool (and |.loc{7}| .def_99))
(define-fun .def_102 () Bool (and .def_100 .def_101))
(define-fun .def_104 () Bool (and .def_102 .def_103))
(define-fun .def_106 () Bool (and .def_104 .def_105))
(define-fun .def_301 () Bool (! (or .def_106 .def_300) :trans true))
(define-fun .def_304 () Bool (and .def_34 .def_83))
(define-fun .def_305 () Bool (and .def_38 .def_304))
(define-fun .def_306 () Bool (! (not .def_305) :invar-property 0))
(assert true)
